
******************************************************************************
This program contains Ipopt, a library for large-scale nonlinear optimization.
 Ipopt is released as open source code under the Eclipse Public License (EPL).
         For more information visit https://github.com/coin-or/Ipopt
******************************************************************************

This is Ipopt version 3.13.4, running with linear solver mumps.
NOTE: Other linear solvers might be more efficient (see Ipopt documentation).

Number of nonzeros in equality constraint Jacobian...:     1520
Number of nonzeros in inequality constraint Jacobian.:        0
Number of nonzeros in Lagrangian Hessian.............:        0

Total number of variables............................:       95
                     variables with only lower bounds:        0
                variables with lower and upper bounds:       89
                     variables with only upper bounds:        0
Total number of equality constraints.................:       16
Total number of inequality constraints...............:        0
        inequality constraints with only lower bounds:        0
   inequality constraints with lower and upper bounds:        0
        inequality constraints with only upper bounds:        0

iter    objective    inf_pr   inf_du lg(mu)  ||d||  lg(rg) alpha_du alpha_pr  ls
   0  1.0000000e+00 1.74e-02 0.00e+00   0.0 0.00e+00    -  0.00e+00 0.00e+00   0
   1  1.0000000e+00 1.24e+02 4.93e+06   0.3 1.82e+01    -  2.66e-01 2.94e-01f  1
   2  1.0000000e+00 1.97e+02 8.27e+04   0.3 1.90e+01    -  1.00e+00 9.09e-01F  1
   3  1.0000000e+00 1.51e+02 4.10e+04   0.3 2.26e+00    -  4.16e-01 3.66e-01f  1
   4  1.0000000e+00 1.64e+02 7.12e+02   0.3 1.78e+00    -  1.00e+00 1.00e+00f  1
   5  1.0000000e+00 1.55e+02 5.33e+01   0.3 2.65e+00    -  1.00e+00 4.91e-01h  2
   6  1.0000000e+00 1.51e+02 1.15e+02  -0.4 1.51e+01    -  7.52e-01 1.13e-01h  4
   7  1.0000000e+00 1.47e+02 1.33e+02  -0.4 1.58e+01    -  1.00e+00 1.25e-01h  4
   8  1.0000000e+00 1.22e+02 2.85e+02  -0.4 1.39e+02    -  5.48e-01 7.24e-02h  4
   9  1.0000000e+00 7.72e+01 8.33e+01  -0.4 1.19e+02    -  1.00e+00 5.00e-01h  2
iter    objective    inf_pr   inf_du lg(mu)  ||d||  lg(rg) alpha_du alpha_pr  ls
  10  1.0000000e+00 1.37e+02 1.64e+02  -0.4 1.93e+01    -  1.00e+00 1.00e+00h  1
